Cu2 O
1.0
       12.7800006866         0.0000000000         0.0000000000
        0.0000000000        12.7800006866         0.0000000000
        0.0000000000         0.0000000000        12.7800006866
   Cu    O
  108   54
Direct
     0.083333336         0.083333336         0.083333336
     0.916666687         0.916666687         0.083333336
     0.916666687         0.083333336         0.916666687
     0.083333336         0.916666687         0.916666687
     0.250000000         0.250000000         0.083333328
     0.250000000         0.083333328         0.250000000
     0.083333328         0.250000000         0.250000000
     0.083333336         0.083333336         0.416666657
     0.916666687         0.916666687         0.416666657
     0.916666687         0.083333336         0.583333313
     0.083333336         0.916666687         0.583333313
     0.416666657         0.083333336         0.083333336
     0.416666657         0.916666687         0.916666687
     0.583333313         0.916666687         0.083333336
     0.583333313         0.083333336         0.916666687
     0.083333336         0.416666657         0.083333336
     0.916666687         0.416666657         0.916666687
     0.083333336         0.583333313         0.916666687
     0.916666687         0.583333313         0.083333336
     0.250000000         0.250000000         0.750000000
     0.083333328         0.083333328         0.750000000
     0.250000000         0.083333328         0.583333313
     0.083333328         0.250000000         0.583333313
     0.250000000         0.583333313         0.083333328
     0.083333328         0.583333313         0.250000000
     0.083333328         0.750000000         0.083333328
     0.250000000         0.750000000         0.250000000
     0.583333313         0.250000000         0.083333328
     0.583333313         0.083333328         0.250000000
     0.750000000         0.250000000         0.250000000
     0.750000000         0.083333328         0.083333328
     0.916666687         0.916666687         0.750000000
     0.916666687         0.083333336         0.250000000
     0.083333336         0.916666687         0.250000000
     0.750000000         0.916666687         0.916666687
     0.250000000         0.916666687         0.083333336
     0.250000000         0.083333336         0.916666687
     0.916666687         0.750000000         0.916666687
     0.083333336         0.250000000         0.916666687
     0.916666687         0.250000000         0.083333336
     0.250000000         0.250000000         0.416666657
     0.250000000         0.416666657         0.250000000
     0.416666657         0.250000000         0.250000000
     0.083333336         0.416666657         0.416666657
     0.916666687         0.583333313         0.416666657
     0.916666687         0.416666657         0.583333313
     0.083333336         0.583333313         0.583333313
     0.416666657         0.083333336         0.416666657
     0.416666657         0.916666687         0.583333313
     0.583333313         0.916666687         0.416666657
     0.583333313         0.083333336         0.583333313
     0.416666657         0.416666657         0.083333336
     0.583333313         0.416666657         0.916666687
     0.416666657         0.583333313         0.916666687
     0.583333313         0.583333313         0.083333336
     0.583333313         0.250000000         0.750000000
     0.750000000         0.083333328         0.750000000
     0.750000000         0.250000000         0.583333313
     0.250000000         0.583333313         0.750000000
     0.083333328         0.750000000         0.750000000
     0.250000000         0.750000000         0.583333313
     0.583333313         0.750000000         0.250000000
     0.750000000         0.583333313         0.250000000
     0.750000000         0.750000000         0.083333328
     0.083333336         0.416666657         0.750000000
     0.916666687         0.583333313         0.750000000
     0.916666687         0.416666657         0.250000000
     0.750000000         0.083333336         0.416666657
     0.750000000         0.916666687         0.583333313
     0.250000000         0.916666687         0.416666657
     0.416666657         0.750000000         0.083333336
     0.583333313         0.750000000         0.916666687
     0.416666657         0.250000000         0.916666687
     0.583333313         0.250000000         0.416666657
     0.750000000         0.250000000         0.916666687
     0.250000000         0.916666687         0.750000000
     0.250000000         0.416666657         0.583333313
     0.916666687         0.750000000         0.250000000
     0.416666657         0.583333313         0.250000000
     0.083333328         0.750000000         0.416666657
     0.250000000         0.583333313         0.416666657
     0.250000000         0.750000000         0.916666687
     0.416666657         0.083333328         0.750000000
     0.416666657         0.250000000         0.583333313
     0.916666687         0.250000000         0.750000000
     0.750000000         0.416666657         0.083333328
     0.583333313         0.416666657         0.250000000
     0.750000000         0.916666687         0.250000000
     0.583333313         0.916666687         0.750000000
     0.416666657         0.916666687         0.250000000
     0.916666687         0.250000000         0.416666657
     0.916666687         0.750000000         0.583333313
     0.250000000         0.416666657         0.916666687
     0.750000000         0.583333313         0.916666687
     0.416666657         0.416666657         0.416666657
     0.583333313         0.583333313         0.416666657
     0.583333313         0.416666657         0.583333313
     0.416666657         0.583333313         0.583333313
     0.583333313         0.583333313         0.750000000
     0.750000000         0.750000000         0.750000000
     0.583333313         0.750000000         0.583333313
     0.750000000         0.583333313         0.583333313
     0.416666657         0.416666657         0.750000000
     0.750000000         0.416666657         0.416666657
     0.416666657         0.750000000         0.416666657
     0.750000000         0.750000000         0.416666657
     0.750000000         0.416666657         0.750000000
     0.416666657         0.750000000         0.750000000
     0.000000000         0.000000000         0.000000000
     0.166666672         0.166666672         0.166666672
     0.000000000         0.000000000         0.333333343
     0.000000000         0.000000000         0.666666687
     0.333333343         0.000000000         0.000000000
     0.666666687         0.000000000         0.000000000
     0.000000000         0.333333343         0.000000000
     0.000000000         0.666666687         0.000000000
     0.166666672         0.166666672         0.833333313
     0.166666672         0.166666672         0.500000000
     0.166666672         0.500000000         0.166666672
     0.166666672         0.833333313         0.166666672
     0.500000000         0.166666672         0.166666672
     0.833333313         0.166666672         0.166666672
     0.000000000         0.333333343         0.333333343
     0.000000000         0.666666687         0.333333343
     0.000000000         0.333333343         0.666666687
     0.000000000         0.666666687         0.666666687
     0.333333343         0.000000000         0.333333343
     0.333333343         0.000000000         0.666666687
     0.666666687         0.000000000         0.333333343
     0.666666687         0.000000000         0.666666687
     0.333333343         0.333333343         0.000000000
     0.666666687         0.333333343         0.000000000
     0.333333343         0.666666687         0.000000000
     0.666666687         0.666666687         0.000000000
     0.500000000         0.166666672         0.833333313
     0.833333313         0.166666672         0.833333313
     0.500000000         0.166666672         0.500000000
     0.833333313         0.166666672         0.500000000
     0.166666672         0.500000000         0.833333313
     0.166666672         0.500000000         0.500000000
     0.166666672         0.833333313         0.833333313
     0.166666672         0.833333313         0.500000000
     0.500000000         0.500000000         0.166666672
     0.500000000         0.833333313         0.166666672
     0.833333313         0.500000000         0.166666672
     0.833333313         0.833333313         0.166666672
     0.333333343         0.333333343         0.333333343
     0.666666687         0.666666687         0.333333343
     0.666666687         0.333333343         0.666666687
     0.333333343         0.666666687         0.666666687
     0.500000000         0.500000000         0.833333313
     0.833333313         0.833333313         0.833333313
     0.500000000         0.833333313         0.500000000
     0.833333313         0.500000000         0.500000000
     0.333333343         0.333333343         0.666666687
     0.666666687         0.666666687         0.666666687
     0.666666687         0.333333343         0.333333343
     0.333333343         0.666666687         0.333333343
     0.500000000         0.500000000         0.500000000
     0.833333313         0.833333313         0.500000000
     0.500000000         0.833333313         0.833333313
     0.833333313         0.500000000         0.833333313

