Cu2 O                                   
   1.00000000000000     
    12.8203685047905349   -0.0000000000000000   -0.0000000000000000
     0.0000000000000000   12.8203685047905349   -0.0000000000000000
    -0.0000000000000000   -0.0000000000000000   12.8203685047905349
   Cu   O 
   108    54
Direct
  0.0833333360000026  0.0833333360000026  0.0833333360000026
  0.9166666870000029  0.9166666870000029  0.0833333360000026
  0.9166666870000029  0.0833333360000026  0.9166666870000029
  0.0833333360000026  0.9166666870000029  0.9166666870000029
  0.2500000000000000  0.2500000000000000  0.0833333280000019
  0.2500000000000000  0.0833333280000019  0.2500000000000000
  0.0833333280000019  0.2500000000000000  0.2500000000000000
  0.0833333360000026  0.0833333360000026  0.4166666570000004
  0.9166666870000029  0.9166666870000029  0.4166666570000004
  0.9166666870000029  0.0833333360000026  0.5833333129999971
  0.0833333360000026  0.9166666870000029  0.5833333129999971
  0.4166666570000004  0.0833333360000026  0.0833333360000026
  0.4166666570000004  0.9166666870000029  0.9166666870000029
  0.5833333129999971  0.9166666870000029  0.0833333360000026
  0.5833333129999971  0.0833333360000026  0.9166666870000029
  0.0833333360000026  0.4166666570000004  0.0833333360000026
  0.9166666870000029  0.4166666570000004  0.9166666870000029
  0.0833333360000026  0.5833333129999971  0.9166666870000029
  0.9166666870000029  0.5833333129999971  0.0833333360000026
  0.2500000000000000  0.2500000000000000  0.7500000000000000
  0.0833333280000019  0.0833333280000019  0.7500000000000000
  0.2500000000000000  0.0833333280000019  0.5833333129999971
  0.0833333280000019  0.2500000000000000  0.5833333129999971
  0.2500000000000000  0.5833333129999971  0.0833333280000019
  0.0833333280000019  0.5833333129999971  0.2500000000000000
  0.0833333280000019  0.7500000000000000  0.0833333280000019
  0.2500000000000000  0.7500000000000000  0.2500000000000000
  0.5833333129999971  0.2500000000000000  0.0833333280000019
  0.5833333129999971  0.0833333280000019  0.2500000000000000
  0.7500000000000000  0.2500000000000000  0.2500000000000000
  0.7500000000000000  0.0833333280000019  0.0833333280000019
  0.9166666870000029  0.9166666870000029  0.7500000000000000
  0.9166666870000029  0.0833333360000026  0.2500000000000000
  0.0833333360000026  0.9166666870000029  0.2500000000000000
  0.7500000000000000  0.9166666870000029  0.9166666870000029
  0.2500000000000000  0.9166666870000029  0.0833333360000026
  0.2500000000000000  0.0833333360000026  0.9166666870000029
  0.9166666870000029  0.7500000000000000  0.9166666870000029
  0.0833333360000026  0.2500000000000000  0.9166666870000029
  0.9166666870000029  0.2500000000000000  0.0833333360000026
  0.2500000000000000  0.2500000000000000  0.4166666570000004
  0.2500000000000000  0.4166666570000004  0.2500000000000000
  0.4166666570000004  0.2500000000000000  0.2500000000000000
  0.0833333360000026  0.4166666570000004  0.4166666570000004
  0.9166666870000029  0.5833333129999971  0.4166666570000004
  0.9166666870000029  0.4166666570000004  0.5833333129999971
  0.0833333360000026  0.5833333129999971  0.5833333129999971
  0.4166666570000004  0.0833333360000026  0.4166666570000004
  0.4166666570000004  0.9166666870000029  0.5833333129999971
  0.5833333129999971  0.9166666870000029  0.4166666570000004
  0.5833333129999971  0.0833333360000026  0.5833333129999971
  0.4166666570000004  0.4166666570000004  0.0833333360000026
  0.5833333129999971  0.4166666570000004  0.9166666870000029
  0.4166666570000004  0.5833333129999971  0.9166666870000029
  0.5833333129999971  0.5833333129999971  0.0833333360000026
  0.5833333129999971  0.2500000000000000  0.7500000000000000
  0.7500000000000000  0.0833333280000019  0.7500000000000000
  0.7500000000000000  0.2500000000000000  0.5833333129999971
  0.2500000000000000  0.5833333129999971  0.7500000000000000
  0.0833333280000019  0.7500000000000000  0.7500000000000000
  0.2500000000000000  0.7500000000000000  0.5833333129999971
  0.5833333129999971  0.7500000000000000  0.2500000000000000
  0.7500000000000000  0.5833333129999971  0.2500000000000000
  0.7500000000000000  0.7500000000000000  0.0833333280000019
  0.0833333360000026  0.4166666570000004  0.7500000000000000
  0.9166666870000029  0.5833333129999971  0.7500000000000000
  0.9166666870000029  0.4166666570000004  0.2500000000000000
  0.7500000000000000  0.0833333360000026  0.4166666570000004
  0.7500000000000000  0.9166666870000029  0.5833333129999971
  0.2500000000000000  0.9166666870000029  0.4166666570000004
  0.4166666570000004  0.7500000000000000  0.0833333360000026
  0.5833333129999971  0.7500000000000000  0.9166666870000029
  0.4166666570000004  0.2500000000000000  0.9166666870000029
  0.5833333129999971  0.2500000000000000  0.4166666570000004
  0.7500000000000000  0.2500000000000000  0.9166666870000029
  0.2500000000000000  0.9166666870000029  0.7500000000000000
  0.2500000000000000  0.4166666570000004  0.5833333129999971
  0.9166666870000029  0.7500000000000000  0.2500000000000000
  0.4166666570000004  0.5833333129999971  0.2500000000000000
  0.0833333280000019  0.7500000000000000  0.4166666570000004
  0.2500000000000000  0.5833333129999971  0.4166666570000004
  0.2500000000000000  0.7500000000000000  0.9166666870000029
  0.4166666570000004  0.0833333280000019  0.7500000000000000
  0.4166666570000004  0.2500000000000000  0.5833333129999971
  0.9166666870000029  0.2500000000000000  0.7500000000000000
  0.7500000000000000  0.4166666570000004  0.0833333280000019
  0.5833333129999971  0.4166666570000004  0.2500000000000000
  0.7500000000000000  0.9166666870000029  0.2500000000000000
  0.5833333129999971  0.9166666870000029  0.7500000000000000
  0.4166666570000004  0.9166666870000029  0.2500000000000000
  0.9166666870000029  0.2500000000000000  0.4166666570000004
  0.9166666870000029  0.7500000000000000  0.5833333129999971
  0.2500000000000000  0.4166666570000004  0.9166666870000029
  0.7500000000000000  0.5833333129999971  0.9166666870000029
  0.4166666570000004  0.4166666570000004  0.4166666570000004
  0.5833333129999971  0.5833333129999971  0.4166666570000004
  0.5833333129999971  0.4166666570000004  0.5833333129999971
  0.4166666570000004  0.5833333129999971  0.5833333129999971
  0.5833333129999971  0.5833333129999971  0.7500000000000000
  0.7500000000000000  0.7500000000000000  0.7500000000000000
  0.5833333129999971  0.7500000000000000  0.5833333129999971
  0.7500000000000000  0.5833333129999971  0.5833333129999971
  0.4166666570000004  0.4166666570000004  0.7500000000000000
  0.7500000000000000  0.4166666570000004  0.4166666570000004
  0.4166666570000004  0.7500000000000000  0.4166666570000004
  0.7500000000000000  0.7500000000000000  0.4166666570000004
  0.7500000000000000  0.4166666570000004  0.7500000000000000
  0.4166666570000004  0.7500000000000000  0.7500000000000000
 -0.0000000000000000 -0.0000000000000000 -0.0000000000000000
  0.1666666719999981  0.1666666719999981  0.1666666719999981
 -0.0000000000000000 -0.0000000000000000  0.3333333429999996
 -0.0000000000000000 -0.0000000000000000  0.6666666870000029
  0.3333333429999996 -0.0000000000000000 -0.0000000000000000
  0.6666666870000029 -0.0000000000000000 -0.0000000000000000
 -0.0000000000000000  0.3333333429999996 -0.0000000000000000
 -0.0000000000000000  0.6666666870000029 -0.0000000000000000
  0.1666666719999981  0.1666666719999981  0.8333333129999971
  0.1666666719999981  0.1666666719999981  0.5000000000000000
  0.1666666719999981  0.5000000000000000  0.1666666719999981
  0.1666666719999981  0.8333333129999971  0.1666666719999981
  0.5000000000000000  0.1666666719999981  0.1666666719999981
  0.8333333129999971  0.1666666719999981  0.1666666719999981
 -0.0000000000000000  0.3333333429999996  0.3333333429999996
 -0.0000000000000000  0.6666666870000029  0.3333333429999996
 -0.0000000000000000  0.3333333429999996  0.6666666870000029
 -0.0000000000000000  0.6666666870000029  0.6666666870000029
  0.3333333429999996 -0.0000000000000000  0.3333333429999996
  0.3333333429999996 -0.0000000000000000  0.6666666870000029
  0.6666666870000029 -0.0000000000000000  0.3333333429999996
  0.6666666870000029 -0.0000000000000000  0.6666666870000029
  0.3333333429999996  0.3333333429999996 -0.0000000000000000
  0.6666666870000029  0.3333333429999996 -0.0000000000000000
  0.3333333429999996  0.6666666870000029 -0.0000000000000000
  0.6666666870000029  0.6666666870000029 -0.0000000000000000
  0.5000000000000000  0.1666666719999981  0.8333333129999971
  0.8333333129999971  0.1666666719999981  0.8333333129999971
  0.5000000000000000  0.1666666719999981  0.5000000000000000
  0.8333333129999971  0.1666666719999981  0.5000000000000000
  0.1666666719999981  0.5000000000000000  0.8333333129999971
  0.1666666719999981  0.5000000000000000  0.5000000000000000
  0.1666666719999981  0.8333333129999971  0.8333333129999971
  0.1666666719999981  0.8333333129999971  0.5000000000000000
  0.5000000000000000  0.5000000000000000  0.1666666719999981
  0.5000000000000000  0.8333333129999971  0.1666666719999981
  0.8333333129999971  0.5000000000000000  0.1666666719999981
  0.8333333129999971  0.8333333129999971  0.1666666719999981
  0.3333333429999996  0.3333333429999996  0.3333333429999996
  0.6666666870000029  0.6666666870000029  0.3333333429999996
  0.6666666870000029  0.3333333429999996  0.6666666870000029
  0.3333333429999996  0.6666666870000029  0.6666666870000029
  0.5000000000000000  0.5000000000000000  0.8333333129999971
  0.8333333129999971  0.8333333129999971  0.8333333129999971
  0.5000000000000000  0.8333333129999971  0.5000000000000000
  0.8333333129999971  0.5000000000000000  0.5000000000000000
  0.3333333429999996  0.3333333429999996  0.6666666870000029
  0.6666666870000029  0.6666666870000029  0.6666666870000029
  0.6666666870000029  0.3333333429999996  0.3333333429999996
  0.3333333429999996  0.6666666870000029  0.3333333429999996
  0.5000000000000000  0.5000000000000000  0.5000000000000000
  0.8333333129999971  0.8333333129999971  0.5000000000000000
  0.5000000000000000  0.8333333129999971  0.8333333129999971
  0.8333333129999971  0.5000000000000000  0.8333333129999971
 
  0.00000000E+00  0.00000000E+00  0.00000000E+00
  0.00000000E+00  0.00000000E+00  0.00000000E+00
  0.00000000E+00  0.00000000E+00  0.00000000E+00
  0.00000000E+00  0.00000000E+00  0.00000000E+00
  0.00000000E+00  0.00000000E+00  0.00000000E+00
  0.00000000E+00  0.00000000E+00  0.00000000E+00
  0.00000000E+00  0.00000000E+00  0.00000000E+00
  0.00000000E+00  0.00000000E+00  0.00000000E+00
  0.00000000E+00  0.00000000E+00  0.00000000E+00
  0.00000000E+00  0.00000000E+00  0.00000000E+00
  0.00000000E+00  0.00000000E+00  0.00000000E+00
  0.00000000E+00  0.00000000E+00  0.00000000E+00
  0.00000000E+00  0.00000000E+00  0.00000000E+00
  0.00000000E+00  0.00000000E+00  0.00000000E+00
  0.00000000E+00  0.00000000E+00  0.00000000E+00
  0.00000000E+00  0.00000000E+00  0.00000000E+00
  0.00000000E+00  0.00000000E+00  0.00000000E+00
  0.00000000E+00  0.00000000E+00  0.00000000E+00
  0.00000000E+00  0.00000000E+00  0.00000000E+00
  0.00000000E+00  0.00000000E+00  0.00000000E+00
  0.00000000E+00  0.00000000E+00  0.00000000E+00
  0.00000000E+00  0.00000000E+00  0.00000000E+00
  0.00000000E+00  0.00000000E+00  0.00000000E+00
  0.00000000E+00  0.00000000E+00  0.00000000E+00
  0.00000000E+00  0.00000000E+00  0.00000000E+00
  0.00000000E+00  0.00000000E+00  0.00000000E+00
  0.00000000E+00  0.00000000E+00  0.00000000E+00
  0.00000000E+00  0.00000000E+00  0.00000000E+00
  0.00000000E+00  0.00000000E+00  0.00000000E+00
  0.00000000E+00  0.00000000E+00  0.00000000E+00
  0.00000000E+00  0.00000000E+00  0.00000000E+00
  0.00000000E+00  0.00000000E+00  0.00000000E+00
  0.00000000E+00  0.00000000E+00  0.00000000E+00
  0.00000000E+00  0.00000000E+00  0.00000000E+00
  0.00000000E+00  0.00000000E+00  0.00000000E+00
  0.00000000E+00  0.00000000E+00  0.00000000E+00
  0.00000000E+00  0.00000000E+00  0.00000000E+00
  0.00000000E+00  0.00000000E+00  0.00000000E+00
  0.00000000E+00  0.00000000E+00  0.00000000E+00
  0.00000000E+00  0.00000000E+00  0.00000000E+00
  0.00000000E+00  0.00000000E+00  0.00000000E+00
  0.00000000E+00  0.00000000E+00  0.00000000E+00
  0.00000000E+00  0.00000000E+00  0.00000000E+00
  0.00000000E+00  0.00000000E+00  0.00000000E+00
  0.00000000E+00  0.00000000E+00  0.00000000E+00
  0.00000000E+00  0.00000000E+00  0.00000000E+00
  0.00000000E+00  0.00000000E+00  0.00000000E+00
  0.00000000E+00  0.00000000E+00  0.00000000E+00
  0.00000000E+00  0.00000000E+00  0.00000000E+00
  0.00000000E+00  0.00000000E+00  0.00000000E+00
  0.00000000E+00  0.00000000E+00  0.00000000E+00
  0.00000000E+00  0.00000000E+00  0.00000000E+00
  0.00000000E+00  0.00000000E+00  0.00000000E+00
  0.00000000E+00  0.00000000E+00  0.00000000E+00
  0.00000000E+00  0.00000000E+00  0.00000000E+00
  0.00000000E+00  0.00000000E+00  0.00000000E+00
  0.00000000E+00  0.00000000E+00  0.00000000E+00
  0.00000000E+00  0.00000000E+00  0.00000000E+00
  0.00000000E+00  0.00000000E+00  0.00000000E+00
  0.00000000E+00  0.00000000E+00  0.00000000E+00
  0.00000000E+00  0.00000000E+00  0.00000000E+00
  0.00000000E+00  0.00000000E+00  0.00000000E+00
  0.00000000E+00  0.00000000E+00  0.00000000E+00
  0.00000000E+00  0.00000000E+00  0.00000000E+00
  0.00000000E+00  0.00000000E+00  0.00000000E+00
  0.00000000E+00  0.00000000E+00  0.00000000E+00
  0.00000000E+00  0.00000000E+00  0.00000000E+00
  0.00000000E+00  0.00000000E+00  0.00000000E+00
  0.00000000E+00  0.00000000E+00  0.00000000E+00
  0.00000000E+00  0.00000000E+00  0.00000000E+00
  0.00000000E+00  0.00000000E+00  0.00000000E+00
  0.00000000E+00  0.00000000E+00  0.00000000E+00
  0.00000000E+00  0.00000000E+00  0.00000000E+00
  0.00000000E+00  0.00000000E+00  0.00000000E+00
  0.00000000E+00  0.00000000E+00  0.00000000E+00
  0.00000000E+00  0.00000000E+00  0.00000000E+00
  0.00000000E+00  0.00000000E+00  0.00000000E+00
  0.00000000E+00  0.00000000E+00  0.00000000E+00
  0.00000000E+00  0.00000000E+00  0.00000000E+00
  0.00000000E+00  0.00000000E+00  0.00000000E+00
  0.00000000E+00  0.00000000E+00  0.00000000E+00
  0.00000000E+00  0.00000000E+00  0.00000000E+00
  0.00000000E+00  0.00000000E+00  0.00000000E+00
  0.00000000E+00  0.00000000E+00  0.00000000E+00
  0.00000000E+00  0.00000000E+00  0.00000000E+00
  0.00000000E+00  0.00000000E+00  0.00000000E+00
  0.00000000E+00  0.00000000E+00  0.00000000E+00
  0.00000000E+00  0.00000000E+00  0.00000000E+00
  0.00000000E+00  0.00000000E+00  0.00000000E+00
  0.00000000E+00  0.00000000E+00  0.00000000E+00
  0.00000000E+00  0.00000000E+00  0.00000000E+00
  0.00000000E+00  0.00000000E+00  0.00000000E+00
  0.00000000E+00  0.00000000E+00  0.00000000E+00
  0.00000000E+00  0.00000000E+00  0.00000000E+00
  0.00000000E+00  0.00000000E+00  0.00000000E+00
  0.00000000E+00  0.00000000E+00  0.00000000E+00
  0.00000000E+00  0.00000000E+00  0.00000000E+00
  0.00000000E+00  0.00000000E+00  0.00000000E+00
  0.00000000E+00  0.00000000E+00  0.00000000E+00
  0.00000000E+00  0.00000000E+00  0.00000000E+00
  0.00000000E+00  0.00000000E+00  0.00000000E+00
  0.00000000E+00  0.00000000E+00  0.00000000E+00
  0.00000000E+00  0.00000000E+00  0.00000000E+00
  0.00000000E+00  0.00000000E+00  0.00000000E+00
  0.00000000E+00  0.00000000E+00  0.00000000E+00
  0.00000000E+00  0.00000000E+00  0.00000000E+00
  0.00000000E+00  0.00000000E+00  0.00000000E+00
  0.00000000E+00  0.00000000E+00  0.00000000E+00
  0.00000000E+00  0.00000000E+00  0.00000000E+00
  0.00000000E+00  0.00000000E+00  0.00000000E+00
  0.00000000E+00  0.00000000E+00  0.00000000E+00
  0.00000000E+00  0.00000000E+00  0.00000000E+00
  0.00000000E+00  0.00000000E+00  0.00000000E+00
  0.00000000E+00  0.00000000E+00  0.00000000E+00
  0.00000000E+00  0.00000000E+00  0.00000000E+00
  0.00000000E+00  0.00000000E+00  0.00000000E+00
  0.00000000E+00  0.00000000E+00  0.00000000E+00
  0.00000000E+00  0.00000000E+00  0.00000000E+00
  0.00000000E+00  0.00000000E+00  0.00000000E+00
  0.00000000E+00  0.00000000E+00  0.00000000E+00
  0.00000000E+00  0.00000000E+00  0.00000000E+00
  0.00000000E+00  0.00000000E+00  0.00000000E+00
  0.00000000E+00  0.00000000E+00  0.00000000E+00
  0.00000000E+00  0.00000000E+00  0.00000000E+00
  0.00000000E+00  0.00000000E+00  0.00000000E+00
  0.00000000E+00  0.00000000E+00  0.00000000E+00
  0.00000000E+00  0.00000000E+00  0.00000000E+00
  0.00000000E+00  0.00000000E+00  0.00000000E+00
  0.00000000E+00  0.00000000E+00  0.00000000E+00
  0.00000000E+00  0.00000000E+00  0.00000000E+00
  0.00000000E+00  0.00000000E+00  0.00000000E+00
  0.00000000E+00  0.00000000E+00  0.00000000E+00
  0.00000000E+00  0.00000000E+00  0.00000000E+00
  0.00000000E+00  0.00000000E+00  0.00000000E+00
  0.00000000E+00  0.00000000E+00  0.00000000E+00
  0.00000000E+00  0.00000000E+00  0.00000000E+00
  0.00000000E+00  0.00000000E+00  0.00000000E+00
  0.00000000E+00  0.00000000E+00  0.00000000E+00
  0.00000000E+00  0.00000000E+00  0.00000000E+00
  0.00000000E+00  0.00000000E+00  0.00000000E+00
  0.00000000E+00  0.00000000E+00  0.00000000E+00
  0.00000000E+00  0.00000000E+00  0.00000000E+00
  0.00000000E+00  0.00000000E+00  0.00000000E+00
  0.00000000E+00  0.00000000E+00  0.00000000E+00
  0.00000000E+00  0.00000000E+00  0.00000000E+00
  0.00000000E+00  0.00000000E+00  0.00000000E+00
  0.00000000E+00  0.00000000E+00  0.00000000E+00
  0.00000000E+00  0.00000000E+00  0.00000000E+00
  0.00000000E+00  0.00000000E+00  0.00000000E+00
  0.00000000E+00  0.00000000E+00  0.00000000E+00
  0.00000000E+00  0.00000000E+00  0.00000000E+00
  0.00000000E+00  0.00000000E+00  0.00000000E+00
  0.00000000E+00  0.00000000E+00  0.00000000E+00
  0.00000000E+00  0.00000000E+00  0.00000000E+00
  0.00000000E+00  0.00000000E+00  0.00000000E+00
  0.00000000E+00  0.00000000E+00  0.00000000E+00
  0.00000000E+00  0.00000000E+00  0.00000000E+00
  0.00000000E+00  0.00000000E+00  0.00000000E+00
  0.00000000E+00  0.00000000E+00  0.00000000E+00
  0.00000000E+00  0.00000000E+00  0.00000000E+00
  0.00000000E+00  0.00000000E+00  0.00000000E+00
  0.00000000E+00  0.00000000E+00  0.00000000E+00
